NURSE = { A, B, C, D, E, F, G, H, I, J, K, L, M, N, O, P, Q, R };

nday = 20;
%                     1      2      3      4      5      6      7      8      9     10     11     12     13     14
rostered_off = [|  true, false, false, false, false, false, false,  true, false, false, false, false, false, false,  true, false, false, false, false, false
                | false, false,  true, false, false, false, false, false, false,  true, false, false, false, false, false,  true, false, false, false, false
                | false, false, false,  true, false, false, false, false, false, false,  true, false, false, false, false, false,  true, false, false, false
                | false, false, false, false,  true, false, false, false, false, false, false,  true, false, false, false, false, false,  true, false, false
                | false, false, false, false, false,  true,  true, false, false, false, false, false,  true, false, false, false, false, false,  true, false
                |  true, false, false, false, false, false, false,  true, false, false, false, false, false,  true, false, false, false, false, false,  true
                | false, false,  true, false,  true, false, false, false, false,  true, false, false, false, false, false,  true, false, false, false, false
                | false, false, false,  true, false, false, false, false, false, false,  true,  true, false, false, false, false,  true,  true, false, false
                | false, false, false, false,  true, false, false,  true, false, false, false,  true, false, false, false, false, false,  true, false, false
                |  true, false, false, false, false,  true, false, false, false, false, false, false,  true, false, false, false, false, false,  true, false
                |  true, false, false, false, false, false, false, false, false, false, false, false, false,  true, false, false, false, false, false,  true
                | false,  true, false, false, false, false, false, false, false, false, false, false,  true,  true, false, false, false, false,  true,  true
                | false, false, false, false,  true, false, false, false, false, false, false,  true, false, false, false, false, false,  true, false, false
                | false, false, false, false, false,  true, false, false, false, false, false, false,  true, false, false, false, false, false,  true, false
                |  true, false, false, false, false, false,  true,  true, false, false, false, false, false,  true, false, false, false, false, false,  true
                | false, false,  true, false,  true, false, false, false, false,  true, false, false, false, false, false,  true, false, false, false, false
                | false, false, false,  true, false, false, false, false, false, false,  true,  true, false, false, false, false,  true,  true, false, false
                | false, false, false, false,  true, false, false,  true, false, false, false,  true, false, false, false, false, false,  true, false, false

                |];
                
maxweek = 5;
maxnightfort = 4;
minfort = 9; 
minshift =  [| 1, 3, 1, 1, 2, 2, 1, 1, 2, 1, 1, 2, 2, 1, 1, 3, 1, 1, 2, 2,
             | 2, 2, 0, 2, 4, 3, 2, 2, 6, 2, 2, 0, 3, 2, 2, 2, 0, 2, 4, 3
             | 1, 0, 3, 2, 1, 2, 1, 3, 1, 1, 2, 1, 2, 1, 1, 0, 3, 2, 1, 2
             | 2, 2, 2, 2, 0, 2, 2, 2, 2, 2, 3, 4, 0, 2, 2, 2, 2, 2, 0, 2
             | 0, 0, 0, 0, 0, 0, 0, 0, 0, 0, 0, 0, 0, 0, 0, 0, 0, 0, 0, 0
             |];               

shift_cost = [ 1, 1, 1, 2, 2, 3, 3, 3, 4, 4, 10, 10, 4, 7, 8, 3, 4, 6 ];

WARD = { GEN, MW1, MW2, EME, CAN, '  .' };
dummy = '  .';
minward =   [| 1, 1, 1, 1, 1, 1, 1, 1, 1, 1, 1, 1, 1, 1, 4, 1, 1, 1, 1, 1
             | 1, 1, 1, 1, 0, 0, 1, 4, 4, 1, 1, 0, 0, 1, 1, 1, 1, 0, 0, 1
             | 1, 1, 1, 0, 0, 1, 1, 1, 1, 1, 0, 0, 1, 1, 1, 1, 0, 0, 1, 1
             | 1, 1, 1, 1, 2, 2, 1, 1, 1, 1, 1, 2, 2, 1, 1, 1, 1, 2, 2, 1
             | 1, 1, 1, 4, 1, 1, 1, 1, 4, 1, 1, 1, 1, 1, 1, 4, 1, 1, 1, 1
             | 0, 0, 0, 0, 0, 0, 0, 0, 0, 0, 0, 0, 0, 0, 0, 0, 0, 0, 0, 0
             |];
maxward = 3;    

SKILL = { SENIOR, EMERGENCY, CANCER };  
senior = SENIOR;
skill = [ {}, {}, {EMERGENCY}, {CANCER}, {SENIOR}, {EMERGENCY,CANCER}, {EMERGENCY}, {CANCER, SENIOR}, {}, {SENIOR, EMERGENCY, CANCER}, {EMERGENCY}, {CANCER, EMERGENCY}, {}, {}, {}, {}, {}, {EMERGENCY, SENIOR} ];
required = [ {}, {}, {}, {EMERGENCY}, {CANCER}, {} ];    
    
                           
